Version identifier: 22.1.1.0 | 2022-11-28 | 9160aff4d
CPXPARAM_ClockType                               1
CPXPARAM_Read_DataCheck                          1
CPXPARAM_Threads                                 1
CPXPARAM_TimeLimit                               7200
CPXPARAM_MIP_Tolerances_AbsMIPGap                0
CPXPARAM_MIP_Tolerances_MIPGap                   0
CPXPARAM_MIP_Tolerances_Integrality              0
Tried aggregator 2 times.
MIP Presolve eliminated 1310 rows and 0 columns.
MIP Presolve modified 1375 coefficients.
Aggregator did 450 substitutions.
Reduced MIP has 2465 rows, 1650 columns, and 7005 nonzeros.
Reduced MIP has 1650 binaries, 0 generals, 0 SOSs, and 0 indicators.
Presolve time = 0.01 sec. (9.77 ticks)
Found incumbent of value -3398.000000 after 0.04 sec. (20.45 ticks)
Probing time = 0.00 sec. (1.14 ticks)
Tried aggregator 1 time.
Detecting symmetries...
MIP Presolve eliminated 250 rows and 0 columns.
Reduced MIP has 2215 rows, 1650 columns, and 6255 nonzeros.
Reduced MIP has 1650 binaries, 0 generals, 0 SOSs, and 0 indicators.
Presolve time = 0.01 sec. (7.34 ticks)
Probing time = 0.01 sec. (0.94 ticks)
Clique table members: 1765.
MIP emphasis: balance optimality and feasibility.
MIP search method: dynamic search.
Parallel mode: none, using 1 thread.
Root relaxation solution time = 0.19 sec. (156.34 ticks)

        Nodes                                         Cuts/
   Node  Left     Objective  IInf  Best Integer    Best Bound    ItCnt     Gap

*     0+    0                        -3398.0000     2100.0000           161.80%
      0     0      800.0000   764    -3398.0000      800.0000     2038  123.54%
      0     0      800.0000   692    -3398.0000   ZeroHalf: 2     2142  123.54%
      0     0      800.0000   714    -3398.0000     Cuts: 130     3413  123.54%
      0     0      800.0000   707    -3398.0000   ZeroHalf: 2     3594  123.54%
*     0+    0                          762.0000      800.0000             4.99%
*     0+    0                          768.0000      800.0000             4.17%
      0     0        cutoff            768.0000      800.0000     3594    4.17%
*     0+    0                          784.0000      800.0000             2.04%
      0     2      800.0000   628      784.0000      800.0000     4176    2.04%
Elapsed time = 1.83 sec. (1302.82 ticks, tree = 0.01 MB, solutions = 4)
      9    11      800.0000   459      784.0000      800.0000     7280    2.04%
     15    17      800.0000   258      784.0000      800.0000     9257    2.04%
     36    38      800.0000   526      784.0000      800.0000    12172    2.04%
     40    42      800.0000   508      784.0000      800.0000    13482    2.04%
     49    51      798.0000   293      784.0000      800.0000    16641    2.04%
     59    55      792.6667   623      784.0000      800.0000    20572    2.04%
     68    64      798.2222   592      784.0000      800.0000    22344    2.04%
     79    69      800.0000   266      784.0000      800.0000    24325    2.04%
     86    76      798.2222   551      784.0000      800.0000    25821    2.04%
    125    99      792.6667   624      784.0000      800.0000    34469    2.04%
Elapsed time = 6.29 sec. (4805.77 ticks, tree = 0.97 MB, solutions = 4)
    166   128        cutoff            784.0000      800.0000    43131    2.04%
    208   154      800.0000   551      784.0000      800.0000    52119    2.04%
    234   172      800.0000   594      784.0000      800.0000    61745    2.04%
    268   186      800.0000   202      784.0000      800.0000    70771    2.04%
    289   195    infeasible            784.0000      800.0000    80176    2.04%
    312   206        cutoff            784.0000      800.0000    88097    2.04%
    349   229      798.0000   383      784.0000      800.0000    96334    2.04%
    378   240      800.0000   385      784.0000      800.0000   104598    2.04%
    405   253      800.0000   596      784.0000      800.0000   113829    2.04%
    440   266      792.6667   617      784.0000      800.0000   122757    2.04%
Elapsed time = 18.73 sec. (14719.39 ticks, tree = 3.65 MB, solutions = 4)
    462   264        cutoff            784.0000      800.0000   131992    2.04%
    498   276      800.0000   583      784.0000      800.0000   140084    2.04%
    521   291      789.5556   621      784.0000      800.0000   148027    2.04%
    550   308      797.6667   452      784.0000      800.0000   157190    2.04%
    592   326      793.3333   436      784.0000      800.0000   166634    2.04%
    624   334        cutoff            784.0000      800.0000   174940    2.04%
    665   353      798.0000   560      784.0000      800.0000   183649    2.04%
    706   378      800.0000   571      784.0000      800.0000   192948    2.04%
    748   394      800.0000   545      784.0000      800.0000   201852    2.04%
*   776   390      integral     0      786.0000      800.0000   207759    1.78%
    799   402      798.2222   505      786.0000      800.0000   211223    1.78%
Elapsed time = 31.21 sec. (24449.85 ticks, tree = 6.21 MB, solutions = 5)
    833   414      800.0000   512      786.0000      800.0000   221166    1.78%
    868   425      800.0000   477      786.0000      800.0000   230185    1.78%
    900   431      796.0000   513      786.0000      800.0000   239890    1.78%
    941   443      797.0000   526      786.0000      800.0000   249050    1.78%
    965   435      800.0000   388      786.0000      800.0000   258844    1.78%
    990   436      798.0000   278      786.0000      800.0000   269326    1.78%
   1015   435        cutoff            786.0000      800.0000   277819    1.78%
   1035   429    infeasible            786.0000      800.0000   287505    1.78%
   1062   442      799.0000   599      786.0000      800.0000   295341    1.78%
   1093   437      800.0000   345      786.0000      800.0000   304269    1.78%
Elapsed time = 43.42 sec. (34213.27 ticks, tree = 7.01 MB, solutions = 5)
   1129   431        cutoff            786.0000      800.0000   313405    1.78%
   1159   435      800.0000   590      786.0000      800.0000   322852    1.78%
   1183   433        cutoff            786.0000      800.0000   333155    1.78%
   1213   433      800.0000   298      786.0000      800.0000   341445    1.78%
   1241   427        cutoff            786.0000      800.0000   350604    1.78%
   1272   430      799.0000   516      786.0000      800.0000   358984    1.78%
   1308   430      791.0000   562      786.0000      800.0000   367578    1.78%
   1368   444      795.8095   486      786.0000      800.0000   377228    1.78%
   1420   444      798.0000   257      786.0000      800.0000   387969    1.78%
   1452   462      791.3333   543      786.0000      800.0000   397451    1.78%
Elapsed time = 56.53 sec. (44148.21 ticks, tree = 7.59 MB, solutions = 5)
   1498   491      792.3333   540      786.0000      800.0000   407754    1.78%
*  1560+  409                          794.0000      800.0000             0.76%
   1590   428      798.3333   126      794.0000      800.0000   417412    0.76%
*  1660+    1                          800.0000      800.0000             0.00%

Cover cuts applied:  11
Zero-half cuts applied:  14

Root node processing (before b&c):
  Real time             =    1.81 sec. (1284.62 ticks)
Sequential b&c:
  Real time             =   58.01 sec. (45456.91 ticks)
                          ------------
Total (root+branch&cut) =   59.82 sec. (46741.53 ticks)
Solution is feasible.

---------------------
@@@ MIP_optimal
>>> Benchmark flat50-9.cnf k 5 OPT 800 TimeCost 60.33800411224365 TimeSolve 60.04769444465637 TimeRead 0.02789902687072754 TimeTrans 0.26241064071655273
